
Gurobi 9.0.2 (linux64) logging started Mon May 25 22:41:40 2020

Changed value of parameter LogFile to gurobi_logs/2020-05-25_22:41:34-rproblem3_mode=optimality_predefined_shifts.log
   Prev:   Default: 
Parameter MIPFocus unchanged
   Value: 0  Min: 0  Max: 3  Default: 0
Parameter SolutionLimit unchanged
   Value: 2000000000  Min: 1  Max: 2000000000  Default: 2000000000
Parameter LogToConsole unchanged
   Value: 1  Min: 0  Max: 1  Default: 1
Changed value of parameter TimeLimit to 18000.0
   Prev: inf  Min: 0.0  Max: inf  Default: inf
Gurobi Optimizer version 9.0.2 build v9.0.2rc0 (linux64)
Optimize a model with 506043 rows, 487910 columns and 38710599 nonzeros
Model fingerprint: 0x51dd606c
Variable types: 137 continuous, 487773 integer (484245 binary)
Coefficient statistics:
  Matrix range     [2e-02, 2e+02]
  Objective range  [2e-01, 4e+00]
  Bounds range     [1e+00, 1e+00]
  RHS range        [1e+00, 2e+02]
Presolve removed 54281 rows and 1396 columns (presolve time = 5s) ...
Presolve removed 54281 rows and 1892 columns (presolve time = 13s) ...
Presolve removed 54281 rows and 1892 columns (presolve time = 15s) ...
Presolve removed 62389 rows and 10000 columns (presolve time = 21s) ...
Presolve removed 74486 rows and 22097 columns (presolve time = 25s) ...
Presolve removed 74486 rows and 22097 columns (presolve time = 30s) ...
Presolve removed 74486 rows and 22097 columns (presolve time = 35s) ...
Presolve removed 74486 rows and 22097 columns (presolve time = 40s) ...
Presolve removed 75802 rows and 22166 columns (presolve time = 53s) ...
Presolve removed 76194 rows and 22558 columns (presolve time = 61s) ...
Presolve removed 76194 rows and 22558 columns (presolve time = 65s) ...
Presolve removed 76586 rows and 22950 columns (presolve time = 77s) ...
Presolve removed 76586 rows and 22950 columns (presolve time = 84s) ...
Presolve removed 76586 rows and 22950 columns (presolve time = 86s) ...
Presolve removed 76586 rows and 22950 columns (presolve time = 92s) ...
Presolve removed 76586 rows and 22950 columns (presolve time = 97s) ...
Presolve removed 76586 rows and 22950 columns (presolve time = 146s) ...
Presolve removed 100747 rows and 47111 columns (presolve time = 157s) ...
Presolve removed 57866 rows and 4230 columns
Presolve time: 157.26s
Presolved: 448177 rows, 483680 columns, 15319968 nonzeros
Variable types: 1 continuous, 483679 integer (463590 binary)

Deterministic concurrent LP optimizer: primal simplex, dual simplex, and barrier
Showing barrier log only...

Root barrier log...

Elapsed ordering time = 5s
Elapsed ordering time = 17s
Elapsed ordering time = 20s
Elapsed ordering time = 25s
Elapsed ordering time = 30s
Elapsed ordering time = 35s
Elapsed ordering time = 40s
Elapsed ordering time = 45s
Ordering time: 45.55s

Barrier statistics:
 Dense cols : 84
 AA' NZ     : 2.788e+08
 Factor NZ  : 4.549e+08 (roughly 4.0 GBytes of memory)
 Factor Ops : 5.463e+11 (roughly 3 seconds per iteration)
 Threads    : 21

                  Objective                Residual
Iter       Primal          Dual         Primal    Dual     Compl     Time
   0   4.26935834e+07  1.29318149e+07  3.86e+05 2.24e+00  8.56e+03   277s
   1   4.10743579e+07  1.24292250e+07  3.70e+05 4.17e+01  8.01e+03   280s
   2   3.70619266e+07  1.47742289e+07  2.91e+05 2.98e+01  6.13e+03   283s
   3   2.57716173e+07  2.44112659e+07  1.96e+05 1.26e+01  3.82e+03   286s
   4   2.01501769e+07  4.11628297e+07  1.52e+05 3.76e+00  2.87e+03   290s
   5   4.76306539e+06  4.98965572e+07  3.62e+04 8.96e-01  7.11e+02   293s
   6   1.74585502e+06  4.15975508e+07  1.33e+04 1.32e-01  2.66e+02   296s
   7   3.96261937e+05  3.14189936e+07  3.07e+03 4.08e-02  7.33e+01   299s
   8   1.23670365e+05  1.21655024e+07  1.02e+03 6.08e-12  2.24e+01   301s
   9   2.72386125e+04  6.81957244e+06  2.92e+02 4.26e-12  8.50e+00   304s
  10   4.41282282e+03  2.57722105e+06  1.09e+02 1.32e-12  3.04e+00   307s
  11  -7.96054233e+02  1.01316044e+06  1.84e+01 5.22e-13  9.09e-01   310s
  12   3.45005258e+03  2.76259616e+05  1.96e+00 5.06e-13  2.10e-01   313s
  13   4.45439987e+03  6.95224067e+04  1.81e-01 5.01e-13  4.81e-02   316s
  14   4.85365553e+03  4.53651366e+04  9.62e-02 6.81e-13  2.99e-02   319s
  15   5.10360371e+03  3.07659410e+04  5.80e-02 5.03e-13  1.89e-02   322s
  16   5.27948804e+03  1.77257905e+04  3.97e-02 5.81e-13  9.16e-03   325s
  17   5.55898444e+03  1.13328465e+04  2.53e-02 9.15e-13  4.25e-03   328s
  18   5.85424161e+03  9.47030400e+03  1.75e-02 1.28e-12  2.66e-03   331s
  19   6.04290245e+03  8.53183156e+03  1.35e-02 1.06e-12  1.83e-03   334s
  20   6.35222889e+03  8.01244559e+03  7.34e-03 1.20e-12  1.22e-03   336s
  21   6.55948826e+03  7.47834460e+03  4.11e-03 1.50e-12  6.76e-04   340s
  22   6.66292973e+03  7.24449892e+03  2.67e-03 1.30e-12  4.28e-04   343s
  23   6.70550727e+03  7.13814729e+03  2.09e-03 1.13e-12  3.19e-04   345s
  24   6.76313690e+03  7.07141504e+03  1.35e-03 9.69e-13  2.27e-04   348s
  25   6.78748758e+03  7.02954432e+03  1.03e-03 1.17e-12  1.78e-04   351s
  26   6.80792823e+03  7.00063012e+03  7.69e-04 1.31e-12  1.42e-04   355s
  27   6.82355320e+03  6.95245255e+03  5.65e-04 1.07e-12  9.49e-05   358s
  28   6.83750272e+03  6.92516403e+03  3.92e-04 1.25e-12  6.45e-05   361s
  29   6.85228619e+03  6.90749960e+03  2.14e-04 9.87e-13  4.06e-05   364s
  30   6.85901355e+03  6.89550939e+03  1.36e-04 1.37e-12  2.69e-05   367s
  31   6.86212047e+03  6.88896014e+03  1.01e-04 9.16e-13  1.98e-05   370s
  32   6.86449773e+03  6.88499401e+03  7.38e-05 1.05e-12  1.51e-05   373s
  33   6.86541324e+03  6.88314662e+03  6.37e-05 1.15e-12  1.31e-05   376s
  34   6.86644317e+03  6.87915545e+03  5.23e-05 8.73e-13  9.36e-06   379s
  35   6.86825133e+03  6.87741291e+03  3.23e-05 8.59e-13  6.74e-06   382s
  36   6.86918676e+03  6.87549622e+03  2.17e-05 1.01e-12  4.64e-06   385s
  37   6.86994181e+03  6.87377823e+03  1.37e-05 1.12e-12  2.82e-06   388s
  38   6.87022360e+03  6.87331743e+03  1.07e-05 1.14e-12  2.28e-06   391s
  39   6.87042753e+03  6.87247339e+03  8.57e-06 9.29e-13  1.51e-06   394s
  40   6.87087597e+03  6.87221066e+03  3.97e-06 8.91e-13  9.82e-07   397s
  41   6.87097044e+03  6.87184380e+03  3.04e-06 1.28e-12  6.43e-07   401s
  42   6.87112516e+03  6.87165581e+03  1.49e-06 1.05e-12  3.90e-07   404s
  43   6.87115207e+03  6.87134093e+03  1.23e-06 4.13e-10  1.42e-07   408s
  44   6.87126168e+03  6.87128784e+03  1.65e-07 5.79e-10  1.97e-08   411s
  45   6.87127817e+03  6.87127891e+03  1.98e-08 1.64e-09  5.59e-10   413s
  46   6.87127882e+03  6.87127882e+03  6.54e-12 3.39e-09  3.60e-12   416s

Barrier solved model in 46 iterations and 415.95 seconds
Optimal objective 6.87127882e+03


Root crossover log...

   14823 DPushes remaining with DInf 0.0000000e+00               417s
   12183 DPushes remaining with DInf 0.0000000e+00               421s
    8932 DPushes remaining with DInf 0.0000000e+00               425s
    5324 DPushes remaining with DInf 0.0000000e+00               431s
    2154 DPushes remaining with DInf 0.0000000e+00               435s
       0 DPushes remaining with DInf 0.0000000e+00               440s

   77553 PPushes remaining with PInf 0.0000000e+00               440s
   47458 PPushes remaining with PInf 0.0000000e+00               440s
    3080 PPushes remaining with PInf 0.0000000e+00               466s
     703 PPushes remaining with PInf 0.0000000e+00               475s
       0 PPushes remaining with PInf 0.0000000e+00               481s

  Push phase complete: Pinf 0.0000000e+00, Dinf 3.5521145e-11    481s


Root simplex log...

Iteration    Objective       Primal Inf.    Dual Inf.      Time
   92254    6.8712788e+03   0.000000e+00   0.000000e+00    481s
   92254    6.8712788e+03   0.000000e+00   0.000000e+00    483s
Concurrent spin time: 21.82s

Solved with barrier

Root relaxation: objective 6.871279e+03, 92254 iterations, 325.99 seconds
Total elapsed time = 505.06s
Total elapsed time = 782.05s
Total elapsed time = 827.33s
Total elapsed time = 855.69s
Total elapsed time = 878.87s

    Nodes    |    Current Node    |     Objective Bounds      |     Work
 Expl Unexpl |  Obj  Depth IntInf | Incumbent    BestBd   Gap | It/Node Time

     0     0 6871.27882    0 12656          - 6871.27882      -     -  905s
     0     0 6871.27882    0 14520          - 6871.27882      -     - 1092s
     0     0 6869.44719    0 18704          - 6869.44719      -     - 1521s
     0     0 6869.35991    0 17048          - 6869.35991      -     - 1582s
     0     0 6869.35852    0 16552          - 6869.35852      -     - 1601s
     0     0 6869.35852    0 16454          - 6869.35852      -     - 1610s
     0     0 6869.35852    0 12156          - 6869.35852      -     - 2349s
     0     0 6869.09297    0 18314          - 6869.09297      -     - 2711s
     0     0 6868.73856    0 19724          - 6868.73856      -     - 2905s
     0     0 6868.72443    0 19198          - 6868.72443      -     - 2929s
     0     0 6868.72275    0 18779          - 6868.72275      -     - 2948s
     0     0 6868.72274    0 18535          - 6868.72274      -     - 2954s
     0     0 6868.72271    0 18594          - 6868.72271      -     - 3071s
     0     0 6868.68491    0 19638          - 6868.68491      -     - 3146s
     0     0 6867.55067    0 20509          - 6867.55067      -     - 3411s
     0     0 6867.31912    0 19824          - 6867.31912      -     - 3561s
     0     0 6867.31819    0 18920          - 6867.31819      -     - 3579s
     0     0 6867.31183    0 19001          - 6867.31183      -     - 3689s
     0     0 6867.10201    0 19809          - 6867.10201      -     - 3882s
     0     0 6866.68165    0 23001          - 6866.68165      -     - 4201s
     0     0 6866.58740    0 24221          - 6866.58740      -     - 4361s
     0     0 6866.57325    0 22832          - 6866.57325      -     - 4442s
     0     0 6866.56691    0 23444          - 6866.56691      -     - 4470s
     0     0 6866.56565    0 23509          - 6866.56565      -     - 4480s
     0     0 6866.55070    0 23430          - 6866.55070      -     - 4600s
     0     0 6866.45219    0 24347          - 6866.45219      -     - 4800s
     0     0 6866.29453    0 23959          - 6866.29453      -     - 4923s
     0     0 6866.10259    0 24898          - 6866.10259      -     - 5116s
     0     0 6865.98287    0 24072          - 6865.98287      -     - 5297s
     0     0 6865.96139    0 23491          - 6865.96139      -     - 5366s
     0     0 6865.94818    0 25091          - 6865.94818      -     - 5406s
     0     0 6865.94475    0 25043          - 6865.94475      -     - 5435s
     0     0 6865.94089    0 25002          - 6865.94089      -     - 5462s
     0     0 6865.94083    0 25487          - 6865.94083      -     - 5471s
     0     0 6865.89866    0 25149          - 6865.89866      -     - 5632s
     0     0 6865.60668    0 26605          - 6865.60668      -     - 5852s
     0     0 6865.42432    0 26193          - 6865.42432      -     - 5978s
     0     0 6865.37597    0 25651          - 6865.37597      -     - 6064s
     0     0 6865.34256    0 24561          - 6865.34256      -     - 6173s
     0     0 6865.33483    0 25054          - 6865.33483      -     - 6232s
     0     0 6865.33331    0 25874          - 6865.33331      -     - 6255s
     0     0 6865.27341    0 27228          - 6865.27341      -     - 6449s
     0     0 6865.12172    0 28083          - 6865.12172      -     - 6602s
     0     0 6865.01652    0 26888          - 6865.01652      -     - 6754s
     0     0 6864.95002    0 26679          - 6864.95002      -     - 6881s
     0     0 6864.91687    0 28277          - 6864.91687      -     - 6989s
     0     0 6864.91138    0 29510          - 6864.91138      -     - 7029s
     0     0 6864.90525    0 29479          - 6864.90525      -     - 7056s
     0     0 6864.90380    0 29838          - 6864.90380      -     - 7075s
     0     0 6864.77784    0 30563          - 6864.77784      -     - 7265s
     0     0 6864.59418    0 29604          - 6864.59418      -     - 7438s
     0     0 6864.50503    0 29197          - 6864.50503      -     - 7572s
     0     0 6864.38822    0 30570          - 6864.38822      -     - 7701s
     0     0 6864.28798    0 29296          - 6864.28798      -     - 7892s
     0     0 6864.25699    0 29912          - 6864.25699      -     - 7974s
     0     0 6864.24327    0 29349          - 6864.24327      -     - 8024s
     0     0 6864.23655    0 30652          - 6864.23655      -     - 8049s
     0     0 6864.23498    0 30891          - 6864.23498      -     - 8061s
     0     0 6864.15737    0 31553          - 6864.15737      -     - 8244s
     0     0 6864.04768    0 31681          - 6864.04768      -     - 8422s
     0     0 6863.93061    0 33006          - 6863.93061      -     - 8646s
     0     0 6863.88851    0 33732          - 6863.88851      -     - 8762s
     0     0 6863.82648    0 34780          - 6863.82648      -     - 8881s
     0     0 6863.80910    0 34520          - 6863.80910      -     - 8946s
     0     0 6863.80441    0 34860          - 6863.80441      -     - 8988s
     0     0 6863.80319    0 34824          - 6863.80319      -     - 9001s
     0     0 6863.73504    0 33422          - 6863.73504      -     - 9199s
     0     0 6863.72231    0 34046          - 6863.72231      -     - 9260s
     0     0 6863.66616    0 35237          - 6863.66616      -     - 9396s
     0     0 6863.63413    0 34800          - 6863.63413      -     - 9495s
     0     0 6863.61415    0 35289          - 6863.61415      -     - 9576s
     0     0 6863.59971    0 34951          - 6863.59971      -     - 9658s
     0     0 6863.59487    0 35024          - 6863.59487      -     - 9693s
     0     0 6863.59266    0 35318          - 6863.59266      -     - 9713s
     0     0 6863.59158    0 35459          - 6863.59158      -     - 9735s
     0     0 6863.44111    0 35307          - 6863.44111      -     - 9931s
     0     0 6863.37444    0 35284          - 6863.37444      -     - 10083s
     0     0 6863.35603    0 36718          - 6863.35603      -     - 10142s
     0     0 6863.32427    0 36888          - 6863.32427      -     - 10266s
     0     0 6863.31794    0 37266          - 6863.31794      -     - 10314s
     0     0 6863.31310    0 37144          - 6863.31310      -     - 10351s
     0     0 6863.31210    0 37296          - 6863.31210      -     - 10373s
     0     0 6863.24529    0 37719          - 6863.24529      -     - 10574s
     0     0 6863.16868    0 37654          - 6863.16868      -     - 10751s
     0     0 6863.13068    0 37803          - 6863.13068      -     - 10868s
     0     0 6863.11936    0 37859          - 6863.11936      -     - 10919s
     0     0 6863.11604    0 37893          - 6863.11604      -     - 10950s
     0     0 6863.11399    0 37790          - 6863.11399      -     - 10969s
     0     0 6863.07508    0 37597          - 6863.07508      -     - 11128s
     0     0 6863.02665    0 37327          - 6863.02665      -     - 11258s
     0     0 6863.01180    0 37029          - 6863.01180      -     - 11315s
     0     0 6862.98694    0 38149          - 6862.98694      -     - 11411s
     0     0 6862.97987    0 37866          - 6862.97987      -     - 11464s
     0     0 6862.97708    0 38072          - 6862.97708      -     - 11498s
     0     0 6862.97615    0 38183          - 6862.97615      -     - 11522s
     0     0 6862.91348    0 38676          - 6862.91348      -     - 11695s
     0     0 6862.89432    0 37882          - 6862.89432      -     - 11790s
     0     0 6862.86051    0 38630          - 6862.86051      -     - 11887s
     0     0 6862.83031    0 38472          - 6862.83031      -     - 11998s
     0     0 6862.82730    0 38869          - 6862.82730      -     - 12034s
     0     0 6862.82582    0 38541          - 6862.82582      -     - 12059s
     0     0 6862.78207    0 37338          - 6862.78207      -     - 12263s
     0     0 6862.76647    0 37912          - 6862.76647      -     - 12347s
     0     0 6862.75265    0 38631          - 6862.75265      -     - 12417s
     0     0 6862.74783    0 38873          - 6862.74783      -     - 12454s
     0     0 6862.74446    0 38581          - 6862.74446      -     - 12489s
     0     0 6862.74384    0 38578          - 6862.74384      -     - 12505s
     0     0 6862.72042    0 38435          - 6862.72042      -     - 12647s
     0     0 6862.70844    0 38882          - 6862.70844      -     - 12743s
     0     0 6862.70622    0 38991          - 6862.70622      -     - 12781s
     0     0 6862.68185    0 38340          - 6862.68185      -     - 12966s
     0     0 6862.66438    0 38599          - 6862.66438      -     - 13067s
     0     0 6862.66045    0 38750          - 6862.66045      -     - 13119s
     0     0 6862.65477    0 39052          - 6862.65477      -     - 13186s
     0     0 6862.65254    0 39027          - 6862.65254      -     - 13220s
     0     0 6862.59158    0 38773          - 6862.59158      -     - 13431s
     0     0 6862.57980    0 39327          - 6862.57980      -     - 13532s
     0     0 6862.57500    0 39459          - 6862.57500      -     - 13589s
     0     0 6862.57366    0 39238          - 6862.57366      -     - 13622s
     0     0 6862.55406    0 39334          - 6862.55406      -     - 13777s
     0     0 6862.54356    0 39425          - 6862.54356      -     - 13871s
     0     0 6862.53945    0 39492          - 6862.53945      -     - 13921s
     0     0 6862.53884    0 39559          - 6862.53884      -     - 13941s
     0     0 6862.51052    0 39163          - 6862.51052      -     - 14131s
     0     0 6862.51052    0 38860          - 6862.51052      -     - 14412s
     0     2 6862.49060    0 38791          - 6862.49060      -     - 17190s
     1     4 6862.49060    1 38791          - 6862.49060      -  1901 17518s
     3     8 6862.49060    2 38791          - 6862.49060      -  3358 17783s
     7    14 6862.49060    3 38792          - 6862.49060      -  3487 18000s

Cutting planes:
  Gomory: 10
  Cover: 2137
  Implied bound: 278
  Clique: 3429
  MIR: 1225
  StrongCG: 163
  GUB cover: 1084
  Zero half: 250
  Relax-and-lift: 5808

Explored 13 nodes (648313 simplex iterations) in 18000.26 seconds
Thread count was 24 (of 48 available processors)

Solution count 0

Time limit reached
Best objective -, best bound 6.862490604235e+03, gap -
